c A SAT instance generated from a 3-CNF formula that had 14 clauses and 7 variables
p cnf 7 14
-7 -5 4 0
6 7 -1 0
6 2 -4 0
7 -6 -4 0
-5 -1 -3 0
-5 -2 -3 0
-7 -4 2 0
-1 -4 7 0
-7 -4 -1 0
-5 -1 -4 0
2 -1 7 0
-3 -5 6 0
4 7 -2 0
7 -4 6 0
